n= 4
m= 50
1000
2000
2500
3000
137	32	4
290	36	4
256	16	2
168	35	7
454	25	5
91	81	9
143	63	7
29	16	2
386	42	6
467	18	2
314	25	5
366	32	4
169	81	9
389	54	9
217	49	7
340	45	5
142	7	1
168	72	8
159	20	4
415	72	9
381	54	9
405	7	1
247	45	9
209	64	8
263	30	6
344	6	1
179	48	6
141	30	6
261	28	4
261	16	2
110	45	9
533	24	3
66	6	1
505	35	5
131	63	7
530	27	3
590	8	1
110	5	1
451	45	5
599	30	6
251	15	3
406	24	4
184	81	9
153	24	4
103	72	9
514	63	9
199	48	8
210	14	2
409	49	7
575	27	3
